
n_res = 6;
rcap = [73, 89, 480, 490, 437, 476];
rtype = [1, 1, 2, 2, 2, 2];
n_tasks = 100;
modes =  [{1, 2, 3}, {4, 5, 6}, {7, 8, 9}, {10, 11, 12}, {13, 14, 15}, {16, 17, 18}, {19, 20, 21}, {22, 23, 24}, {25, 26, 27}, {28, 29, 30}, {31, 32, 33}, {34, 35, 36}, {37, 38, 39}, {40, 41, 42}, {43, 44, 45}, {46, 47, 48}, {49, 50, 51}, {52, 53, 54}, {55, 56, 57}, {58, 59, 60}, {61, 62, 63}, {64, 65, 66}, {67, 68, 69}, {70, 71, 72}, {73, 74, 75}, {76, 77, 78}, {79, 80, 81}, {82, 83, 84}, {85, 86, 87}, {88, 89, 90}, {91, 92, 93}, {94, 95, 96}, {97, 98, 99}, {100, 101, 102}, {103, 104, 105}, {106, 107, 108}, {109, 110, 111}, {112, 113, 114}, {115, 116, 117}, {118, 119, 120}, {121, 122, 123}, {124, 125, 126}, {127, 128, 129}, {130, 131, 132}, {133, 134, 135}, {136, 137, 138}, {139, 140, 141}, {142, 143, 144}, {145, 146, 147}, {148, 149, 150}, {151, 152, 153}, {154, 155, 156}, {157, 158, 159}, {160, 161, 162}, {163, 164, 165}, {166, 167, 168}, {169, 170, 171}, {172, 173, 174}, {175, 176, 177}, {178, 179, 180}, {181, 182, 183}, {184, 185, 186}, {187, 188, 189}, {190, 191, 192}, {193, 194, 195}, {196, 197, 198}, {199, 200, 201}, {202, 203, 204}, {205, 206, 207}, {208, 209, 210}, {211, 212, 213}, {214, 215, 216}, {217, 218, 219}, {220, 221, 222}, {223, 224, 225}, {226, 227, 228}, {229, 230, 231}, {232, 233, 234}, {235, 236, 237}, {238, 239, 240}, {241, 242, 243}, {244, 245, 246}, {247, 248, 249}, {250, 251, 252}, {253, 254, 255}, {256, 257, 258}, {259, 260, 261}, {262, 263, 264}, {265, 266, 267}, {268, 269, 270}, {271, 272, 273}, {274, 275, 276}, {277, 278, 279}, {280, 281, 282}, {283, 284, 285}, {286, 287, 288}, {289, 290, 291}, {292, 293, 294}, {295, 296, 297}, {298, 299, 300}];
succ =  [{100, 98, 96, 71, 65, 63, 54, 52, 50, 47, 46, 45, 40, 38, 36, 33, 31}, {100, 95, 73, 71, 61, 57, 56, 53, 52, 50, 49, 42, 41, 38, 36, 19}, {99, 98, 96, 72, 70, 65, 64, 62, 61, 60, 59, 58, 57, 54, 51, 50, 45, 44, 43, 23}, {96, 95, 70, 65, 64, 63, 62, 59, 58, 54, 47, 13}, {100, 97, 96, 71, 69, 65, 64, 63, 62, 61, 58, 55, 54, 52, 51, 50, 46, 39, 33}, {99, 98, 71, 69, 64, 63, 59, 58, 55, 54, 50, 47, 45, 39, 38, 33}, {99, 97, 96, 74, 72, 69, 63, 62, 59, 58, 52, 50, 46, 45, 39, 36}, {97, 96, 95, 93, 74, 72, 71, 70, 69, 61, 60, 59, 58, 56, 54, 50, 41, 37}, {98, 95, 93, 86, 69, 68, 64, 63, 60, 59, 58, 53, 52, 48, 47, 44, 37}, {96, 93, 88, 83, 72, 69, 64, 63, 62, 59, 58, 54, 50, 48, 45, 39}, {100, 99, 97, 96, 95, 86, 85, 73, 68, 58, 56, 55, 51, 50, 43, 42, 40}, {98, 95, 94, 92, 88, 85, 74, 72, 71, 69, 62, 59, 58, 57, 55, 51, 46, 45}, {100, 99, 98, 90, 88, 85, 73, 61, 57, 55, 50, 45, 43, 41}, {98, 95, 73, 72, 67, 62, 61, 58, 55, 52, 45, 31}, {100, 96, 93, 90, 85, 80, 71, 68, 66, 64, 63, 58, 57, 50, 46, 44}, {98, 97, 96, 89, 71, 68, 67, 63, 60, 56, 55, 51, 31}, {99, 95, 94, 92, 91, 87, 85, 83, 70, 68, 59, 58, 57, 56, 54, 51}, {100, 98, 97, 94, 92, 88, 87, 85, 82, 69, 67, 59, 58, 56, 55, 51}, {99, 98, 96, 92, 85, 83, 81, 79, 70, 69, 67, 62, 59, 58, 46}, {93, 92, 91, 87, 86, 84, 79, 70, 69, 67, 62, 57, 56, 55, 52}, {99, 98, 97, 95, 92, 91, 81, 79, 70, 69, 52, 41}, {97, 96, 95, 93, 91, 89, 88, 86, 85, 84, 80, 79, 68, 57, 50}, {100, 95, 94, 90, 89, 88, 86, 85, 82, 79, 77, 68, 67, 63, 56, 55}, {98, 95, 94, 91, 88, 86, 85, 84, 82, 79, 56, 55, 50}, {97, 93, 86, 84, 81, 61, 60, 55, 52, 50}, {94, 93, 83, 81, 80, 79, 70, 67, 60, 58, 46}, {100, 97, 92, 91, 83, 75, 73, 56, 40}, {95, 94, 92, 91, 89, 83, 81, 80, 79, 69, 63, 60, 54}, {95, 90, 85, 84, 82, 81, 80, 78, 72, 69, 68, 61, 51}, {99, 91, 89, 86, 85, 84, 83, 77, 68, 67, 60, 57}, {94, 92, 90, 87, 86, 85, 84, 83, 80, 79, 78, 76, 69, 57}, {90, 89, 88, 85, 84, 83, 81, 80, 78, 76, 71, 46}, {95, 87, 85, 81, 80, 79, 77, 76, 70, 67, 60}, {96, 94, 92, 89, 84, 79, 70, 68, 67, 56}, {93, 90, 88, 86, 78, 70, 66, 55}, {92, 86, 80, 67, 55, 51}, {91, 87, 85, 84, 82, 81, 80, 77, 76, 75, 67}, {93, 83, 82, 80, 79, 78, 77, 75, 72, 68}, {95, 86, 85, 79, 73, 68, 57}, {93, 88, 82, 79, 77, 67, 62}, {94, 84, 83, 80, 68, 67}, {90, 81, 80, 79, 77, 76, 75}, {91, 89, 81, 77, 76, 71}, {84, 78, 77, 55}, {86, 77, 56}, {87, 86, 82, 77, 75}, {97, 87, 80, 77, 76}, {79, 78, 77, 76, 75}, {93, 83, 80, 78, 77}, {92, 87, 77, 67}, {93, 79, 77, 75}, {88, 85, 83, 82}, {96, 92, 77, 75}, {86, 75, 67}, {83, 76, 75}, {81, 80, 76}, {82, 81, 75}, {89, 84, 76}, {90, 80, 78}, {90, 88, 78}, {79, 77, 75}, {89, 76}, {87, 75}, {94, 91}, {85, 82}, {91, 79}, {78}, {76}, {77}, {75}, {79}, {91}, {84}, {78}, {}, {}, {}, {}, {}, {}, {}, {}, {}, {}, {}, {}, {}, {}, {}, {}, {}, {}, {}, {}, {}, {}, {}, {}, {}, {}];
n_opt = 300;
dur = [6, 8, 10, 3, 5, 7, 2, 6, 9, 1, 5, 6, 5, 9, 10, 1, 4, 10, 2, 6, 10, 4, 6, 7, 5, 6, 9, 3, 7, 9, 1, 5, 7, 6, 7, 8, 3, 5, 6, 2, 4, 10, 8, 9, 10, 3, 4, 7, 2, 6, 10, 2, 8, 9, 1, 3, 7, 4, 5, 7, 2, 3, 7, 2, 6, 10, 1, 8, 10, 2, 3, 10, 7, 9, 10, 2, 4, 10, 2, 9, 10, 3, 4, 9, 1, 5, 9, 1, 7, 8, 2, 3, 8, 2, 9, 10, 4, 7, 8, 1, 3, 5, 1, 3, 9, 1, 7, 9, 2, 3, 10, 1, 5, 9, 6, 9, 10, 1, 2, 6, 1, 2, 7, 2, 6, 8, 4, 5, 8, 5, 7, 8, 1, 2, 6, 4, 5, 10, 1, 2, 4, 1, 4, 5, 1, 6, 10, 3, 4, 9, 1, 4, 10, 1, 2, 3, 1, 3, 6, 2, 6, 8, 3, 8, 9, 1, 3, 9, 1, 4, 5, 2, 4, 6, 5, 8, 10, 1, 3, 8, 4, 6, 10, 1, 2, 7, 5, 7, 9, 2, 6, 10, 2, 7, 8, 3, 4, 5, 1, 2, 3, 5, 6, 10, 1, 6, 10, 8, 9, 10, 2, 5, 7, 3, 4, 6, 4, 7, 8, 5, 7, 10, 2, 6, 10, 6, 7, 8, 5, 9, 10, 5, 9, 10, 1, 3, 10, 1, 3, 10, 1, 2, 9, 7, 8, 9, 2, 6, 8, 4, 6, 10, 5, 7, 10, 3, 4, 10, 1, 4, 10, 6, 9, 10, 8, 9, 10, 3, 8, 9, 5, 6, 7, 2, 3, 7, 5, 7, 9, 3, 6, 10, 4, 5, 6, 3, 5, 6, 2, 4, 7, 7, 8, 10, 2, 7, 8, 1, 5, 6];
rreq = [|2, 1, 1, 5, 4, 3, 3, 3, 2, 1, 1, 1, 2, 2, 1, 3, 3, 2, 4, 3, 3, 2, 2, 2, 2, 1, 1, 5, 3, 1, 1, 1, 1, 4, 2, 2, 4, 4, 4, 3, 2, 2, 4, 3, 1, 3, 3, 3, 4, 4, 4, 4, 2, 2, 5, 5, 5, 3, 2, 2, 3, 2, 2, 2, 1, 1, 2, 1, 1, 1, 1, 1, 4, 3, 2, 3, 2, 2, 3, 3, 2, 3, 3, 2, 5, 5, 5, 5, 4, 3, 4, 3, 2, 4, 3, 3, 3, 2, 2, 4, 3, 3, 4, 4, 4, 2, 2, 2, 3, 3, 2, 1, 1, 1, 4, 4, 3, 4, 3, 3, 4, 3, 3, 4, 4, 4, 5, 4, 3, 2, 1, 1, 5, 3, 3, 3, 3, 3, 3, 3, 2, 3, 2, 1, 4, 3, 3, 3, 2, 2, 3, 3, 3, 5, 4, 4, 4, 4, 3, 3, 3, 3, 2, 2, 2, 2, 2, 2, 3, 3, 2, 2, 2, 2, 4, 2, 2, 5, 4, 2, 5, 3, 2, 4, 2, 2, 3, 3, 3, 4, 4, 4, 5, 5, 5, 5, 4, 2, 4, 4, 4, 1, 1, 1, 4, 3, 2, 5, 5, 5, 5, 5, 5, 1, 1, 1, 5, 5, 5, 4, 3, 3, 3, 3, 3, 5, 4, 4, 2, 1, 1, 5, 3, 3, 3, 3, 3, 5, 4, 4, 3, 3, 2, 2, 2, 2, 1, 1, 1, 2, 1, 1, 3, 2, 2, 4, 3, 2, 2, 1, 1, 3, 3, 2, 3, 3, 3, 3, 2, 2, 5, 4, 4, 4, 2, 2, 2, 2, 2, 2, 2, 2, 5, 3, 3, 2, 1, 1, 3, 2, 2, 3, 3, 2, 5, 2, 1, 5, 4, 4
 |4, 3, 3, 4, 3, 2, 4, 4, 4, 5, 5, 5, 5, 5, 5, 4, 3, 3, 5, 4, 4, 3, 2, 2, 5, 2, 1, 4, 4, 3, 5, 3, 3, 4, 3, 2, 5, 2, 1, 4, 4, 3, 2, 2, 1, 3, 2, 2, 4, 3, 2, 4, 4, 3, 3, 2, 2, 3, 2, 1, 4, 3, 2, 3, 3, 3, 2, 1, 1, 3, 2, 1, 4, 4, 3, 5, 4, 2, 3, 3, 3, 4, 3, 2, 5, 5, 5, 4, 4, 4, 5, 3, 1, 5, 4, 4, 3, 3, 2, 4, 3, 2, 2, 2, 2, 4, 4, 4, 3, 3, 3, 3, 2, 2, 4, 3, 1, 1, 1, 1, 3, 3, 3, 4, 3, 2, 2, 2, 2, 3, 3, 2, 3, 3, 2, 4, 2, 2, 3, 3, 3, 4, 4, 4, 3, 2, 1, 4, 4, 2, 4, 4, 2, 4, 4, 4, 2, 1, 1, 5, 3, 3, 3, 2, 2, 2, 2, 2, 4, 3, 3, 4, 3, 3, 3, 2, 2, 5, 3, 3, 3, 3, 2, 3, 3, 2, 3, 2, 2, 1, 1, 1, 3, 2, 2, 3, 2, 2, 4, 4, 4, 5, 4, 4, 2, 1, 1, 5, 5, 5, 5, 4, 4, 4, 3, 2, 3, 2, 1, 4, 4, 4, 3, 2, 2, 1, 1, 1, 4, 4, 4, 5, 5, 5, 3, 2, 2, 4, 2, 2, 3, 2, 2, 2, 2, 1, 4, 4, 4, 3, 2, 2, 3, 2, 2, 4, 4, 4, 1, 1, 1, 3, 3, 3, 5, 4, 3, 1, 1, 1, 3, 3, 3, 1, 1, 1, 4, 2, 2, 4, 3, 3, 2, 2, 1, 3, 3, 3, 5, 4, 3, 5, 2, 2, 3, 2, 2, 2, 2, 1
 |7, 5, 4, 3, 1, 1, 8, 8, 5, 6, 2, 1, 6, 4, 2, 5, 3, 2, 2, 1, 1, 5, 4, 4, 4, 3, 3, 8, 8, 8, 7, 6, 4, 9, 8, 5, 8, 8, 7, 7, 6, 6, 2, 1, 1, 5, 5, 5, 5, 3, 2, 7, 7, 4, 6, 3, 1, 8, 3, 3, 6, 5, 4, 8, 6, 5, 10, 10, 10, 4, 4, 4, 7, 6, 2, 3, 2, 1, 8, 6, 5, 4, 3, 3, 9, 8, 8, 7, 7, 7, 5, 5, 5, 7, 6, 3, 9, 7, 6, 5, 4, 3, 7, 5, 4, 7, 6, 5, 5, 5, 3, 5, 5, 4, 10, 6, 4, 5, 3, 1, 7, 7, 5, 5, 5, 4, 9, 7, 4, 5, 4, 4, 6, 4, 4, 8, 5, 5, 10, 10, 10, 8, 5, 5, 5, 3, 3, 6, 5, 4, 9, 6, 3, 8, 7, 7, 9, 9, 9, 5, 5, 5, 8, 7, 7, 8, 6, 1, 7, 6, 4, 1, 1, 1, 2, 2, 1, 2, 1, 1, 8, 6, 6, 3, 3, 1, 10, 9, 9, 5, 5, 5, 7, 5, 3, 10, 10, 10, 2, 1, 1, 4, 3, 3, 8, 6, 5, 5, 4, 1, 7, 6, 6, 8, 6, 3, 10, 7, 6, 5, 5, 5, 7, 5, 4, 4, 4, 4, 4, 3, 2, 10, 10, 10, 5, 3, 2, 6, 5, 5, 4, 4, 4, 10, 9, 8, 6, 5, 4, 7, 5, 5, 4, 2, 2, 6, 5, 4, 4, 4, 4, 9, 8, 6, 6, 4, 2, 10, 10, 10, 6, 6, 4, 6, 3, 2, 7, 5, 5, 8, 7, 4, 5, 3, 3, 10, 9, 7, 5, 4, 4, 4, 2, 2, 5, 5, 5, 10, 9, 9
 |5, 3, 2, 7, 7, 7, 6, 5, 2, 9, 8, 7, 7, 3, 1, 8, 5, 4, 5, 3, 1, 5, 3, 3, 9, 8, 6, 6, 5, 3, 8, 8, 7, 4, 3, 1, 2, 2, 2, 8, 6, 3, 6, 6, 6, 10, 8, 8, 3, 2, 1, 4, 3, 2, 7, 6, 6, 1, 1, 1, 6, 2, 1, 7, 5, 5, 9, 8, 6, 1, 1, 1, 9, 4, 3, 8, 7, 7, 9, 7, 6, 10, 7, 5, 5, 2, 1, 8, 3, 1, 7, 7, 6, 8, 6, 2, 8, 7, 7, 8, 6, 5, 5, 5, 5, 5, 3, 2, 8, 8, 7, 8, 7, 6, 9, 8, 8, 3, 1, 1, 10, 6, 3, 2, 2, 2, 8, 4, 4, 7, 5, 4, 10, 7, 6, 4, 2, 2, 9, 6, 3, 1, 1, 1, 2, 2, 2, 6, 5, 5, 7, 7, 5, 7, 7, 6, 8, 7, 5, 7, 7, 6, 7, 4, 2, 8, 8, 8, 6, 5, 5, 8, 7, 6, 7, 5, 5, 6, 4, 4, 7, 3, 1, 10, 8, 7, 9, 6, 5, 6, 6, 3, 8, 7, 2, 5, 3, 3, 5, 5, 4, 8, 8, 8, 9, 8, 5, 5, 4, 4, 4, 2, 1, 3, 3, 3, 4, 3, 3, 9, 9, 8, 9, 8, 8, 6, 5, 5, 7, 4, 2, 6, 6, 5, 2, 2, 2, 9, 8, 8, 5, 4, 3, 9, 8, 7, 8, 7, 4, 9, 8, 7, 7, 7, 7, 5, 5, 4, 9, 7, 7, 6, 4, 2, 6, 6, 5, 5, 2, 2, 10, 10, 10, 8, 7, 6, 10, 10, 10, 2, 1, 1, 5, 5, 4, 10, 8, 6, 8, 7, 5, 10, 8, 8, 5, 4, 4, 4, 3, 2
 |9, 6, 5, 7, 4, 3, 4, 3, 1, 8, 6, 3, 9, 6, 5, 2, 1, 1, 7, 5, 5, 5, 3, 3, 9, 8, 8, 10, 8, 6, 2, 2, 2, 9, 6, 6, 5, 4, 3, 9, 8, 8, 9, 8, 8, 3, 3, 3, 6, 4, 2, 5, 4, 3, 7, 7, 7, 9, 6, 1, 9, 5, 2, 8, 6, 5, 8, 4, 4, 5, 5, 5, 5, 3, 3, 3, 3, 2, 7, 6, 3, 9, 8, 6, 5, 4, 3, 10, 9, 8, 7, 5, 5, 5, 4, 1, 5, 4, 1, 6, 3, 2, 7, 7, 6, 7, 5, 5, 8, 4, 3, 3, 2, 1, 4, 3, 1, 5, 3, 3, 3, 3, 1, 9, 8, 6, 3, 2, 1, 10, 5, 4, 10, 10, 10, 4, 4, 4, 3, 2, 1, 5, 4, 4, 6, 5, 4, 8, 7, 6, 1, 1, 1, 5, 4, 3, 7, 7, 7, 7, 7, 7, 6, 6, 2, 9, 6, 3, 7, 6, 6, 6, 5, 4, 6, 6, 5, 8, 6, 6, 3, 3, 2, 1, 1, 1, 6, 6, 2, 7, 5, 1, 3, 2, 2, 10, 6, 5, 6, 5, 4, 8, 5, 4, 5, 2, 1, 8, 6, 2, 10, 9, 8, 1, 1, 1, 9, 8, 7, 2, 2, 2, 6, 4, 4, 6, 6, 6, 8, 5, 4, 4, 3, 3, 3, 2, 2, 8, 7, 3, 4, 3, 2, 9, 8, 7, 5, 2, 2, 4, 2, 1, 9, 9, 8, 9, 9, 9, 5, 4, 4, 7, 6, 6, 3, 2, 1, 4, 2, 1, 8, 5, 4, 2, 2, 2, 5, 3, 2, 8, 5, 4, 5, 4, 4, 7, 7, 6, 3, 3, 3, 7, 5, 3, 4, 4, 4, 8, 5, 5
 |6, 5, 3, 4, 3, 2, 1, 1, 1, 9, 7, 7, 8, 8, 6, 3, 2, 2, 6, 6, 4, 9, 8, 7, 9, 7, 7, 4, 3, 1, 10, 8, 8, 7, 4, 3, 8, 5, 4, 3, 2, 2, 6, 6, 6, 5, 4, 3, 7, 5, 2, 9, 8, 8, 6, 6, 6, 4, 3, 2, 8, 7, 7, 3, 3, 3, 8, 7, 7, 7, 3, 3, 9, 7, 6, 7, 6, 4, 9, 9, 9, 8, 6, 5, 4, 4, 4, 9, 8, 7, 4, 3, 3, 3, 2, 2, 8, 6, 4, 1, 1, 1, 8, 7, 7, 6, 6, 6, 5, 4, 2, 8, 8, 8, 6, 4, 4, 8, 8, 8, 3, 3, 3, 5, 3, 3, 7, 6, 5, 3, 2, 2, 9, 6, 1, 5, 4, 3, 3, 3, 3, 6, 5, 4, 4, 4, 2, 7, 5, 4, 6, 6, 5, 6, 4, 3, 3, 3, 3, 7, 7, 7, 6, 6, 3, 7, 5, 3, 5, 3, 3, 5, 4, 1, 7, 6, 3, 6, 4, 4, 8, 7, 7, 3, 2, 1, 10, 10, 10, 8, 6, 6, 3, 2, 2, 8, 8, 7, 6, 5, 4, 6, 4, 4, 6, 5, 3, 7, 7, 7, 7, 6, 5, 10, 9, 9, 6, 5, 5, 10, 9, 9, 6, 4, 3, 8, 7, 4, 8, 7, 6, 3, 2, 2, 5, 4, 2, 5, 5, 5, 7, 6, 6, 4, 3, 1, 10, 8, 6, 5, 4, 4, 3, 3, 3, 7, 5, 3, 10, 6, 5, 6, 6, 3, 4, 4, 3, 9, 7, 7, 10, 9, 7, 6, 3, 2, 6, 5, 1, 9, 8, 8, 5, 4, 1, 5, 4, 4, 10, 5, 4, 5, 3, 3, 7, 4, 2, 4, 3, 2|];